Generations:
0: ((46, 5, 21, 45, 1, 36, 29, 4, 12, 18, 32, 17, 39, 14, 28, 38, 8, 9, 27, 22, 30, 26, 43, 34, 35, 42, 48, 6, 16, 41, 20, 11, 3, 24, 37, 2, 19, 44, 31, 49, 33, 13, 10, 40, 47, 15, 25, 7, 0, 23), 1313)
1: ((46, 5, 21, 45, 1, 36, 29, 4, 12, 18, 32, 17, 39, 14, 28, 38, 8, 9, 27, 22, 30, 26, 43, 34, 35, 42, 48, 6, 16, 41, 20, 11, 3, 24, 37, 2, 19, 44, 31, 49, 33, 13, 10, 40, 47, 15, 25, 7, 0, 23), 1313)
2: ((46, 5, 21, 45, 1, 36, 29, 4, 12, 18, 32, 17, 39, 14, 28, 38, 8, 9, 27, 22, 30, 26, 43, 34, 35, 42, 48, 6, 16, 41, 20, 11, 3, 24, 37, 2, 19, 44, 31, 49, 33, 13, 10, 40, 47, 15, 25, 7, 0, 23), 1313)
3: ((46, 5, 21, 45, 1, 36, 29, 4, 12, 18, 32, 17, 39, 14, 28, 38, 8, 9, 27, 22, 30, 26, 43, 34, 35, 42, 48, 6, 16, 41, 20, 11, 3, 24, 37, 2, 19, 44, 31, 49, 33, 13, 10, 40, 47, 15, 25, 7, 0, 23), 1313)
4: ((46, 5, 21, 45, 1, 36, 29, 4, 12, 18, 32, 17, 39, 14, 28, 38, 8, 9, 27, 22, 30, 26, 43, 34, 35, 42, 48, 6, 16, 41, 20, 11, 3, 24, 37, 2, 19, 44, 31, 49, 33, 13, 10, 40, 47, 15, 25, 7, 0, 23), 1313)
5: ((46, 5, 21, 45, 1, 36, 29, 4, 12, 18, 32, 17, 39, 14, 28, 38, 8, 9, 27, 22, 30, 26, 43, 34, 35, 42, 48, 6, 16, 41, 20, 11, 3, 24, 37, 2, 19, 44, 31, 49, 33, 13, 10, 40, 47, 15, 25, 7, 0, 23), 1313)
6: ((46, 5, 21, 45, 1, 36, 29, 4, 12, 18, 32, 17, 39, 14, 28, 38, 8, 9, 27, 22, 30, 26, 43, 34, 35, 42, 48, 6, 16, 41, 20, 11, 3, 24, 37, 2, 19, 44, 31, 49, 33, 13, 10, 40, 47, 15, 25, 7, 0, 23), 1313)
7: ((46, 5, 21, 45, 1, 36, 29, 4, 12, 18, 32, 17, 39, 14, 28, 38, 8, 9, 27, 22, 30, 26, 43, 34, 35, 42, 48, 6, 16, 41, 20, 11, 3, 24, 37, 2, 19, 44, 31, 49, 33, 13, 10, 40, 47, 15, 25, 7, 0, 23), 1313)
8: ((46, 5, 21, 45, 1, 36, 29, 4, 12, 18, 32, 17, 39, 14, 28, 38, 8, 9, 27, 22, 30, 26, 43, 34, 35, 42, 48, 6, 16, 41, 20, 11, 3, 24, 37, 2, 19, 44, 31, 49, 33, 13, 10, 40, 47, 15, 25, 7, 0, 23), 1313)
9: ((46, 5, 21, 45, 1, 36, 29, 4, 12, 18, 32, 17, 39, 14, 28, 38, 8, 9, 27, 22, 30, 26, 43, 34, 35, 42, 48, 6, 16, 41, 20, 11, 3, 24, 37, 2, 19, 44, 31, 49, 33, 13, 10, 40, 47, 15, 25, 7, 0, 23), 1313)
10: ((46, 5, 21, 45, 1, 36, 29, 4, 12, 18, 32, 17, 39, 14, 28, 38, 8, 9, 27, 22, 30, 26, 43, 34, 35, 42, 48, 6, 16, 41, 20, 11, 3, 24, 37, 2, 19, 44, 31, 49, 33, 13, 10, 40, 47, 15, 25, 7, 0, 23), 1313)
11: ((46, 5, 21, 45, 1, 36, 29, 4, 12, 18, 32, 17, 39, 14, 28, 38, 8, 9, 27, 22, 30, 26, 43, 34, 35, 42, 48, 6, 16, 41, 20, 11, 3, 24, 37, 2, 19, 44, 31, 49, 33, 13, 10, 40, 47, 15, 25, 7, 0, 23), 1313)
12: ((46, 5, 21, 45, 1, 36, 29, 4, 12, 18, 32, 17, 39, 14, 28, 38, 8, 9, 27, 22, 30, 26, 43, 34, 35, 42, 48, 6, 16, 41, 20, 11, 3, 24, 37, 2, 19, 44, 31, 49, 33, 13, 10, 40, 47, 15, 25, 7, 0, 23), 1313)
13: ((46, 5, 21, 45, 1, 36, 29, 4, 12, 18, 32, 17, 39, 14, 28, 38, 8, 9, 27, 22, 30, 26, 43, 34, 35, 42, 48, 6, 16, 41, 20, 11, 3, 24, 37, 2, 19, 44, 31, 49, 33, 13, 10, 40, 47, 15, 25, 7, 0, 23), 1313)
14: ((46, 5, 21, 45, 1, 36, 29, 4, 12, 18, 32, 17, 39, 14, 28, 38, 8, 9, 27, 22, 30, 26, 43, 34, 35, 42, 48, 6, 16, 41, 20, 11, 3, 24, 37, 2, 19, 44, 31, 49, 33, 13, 10, 40, 47, 15, 25, 7, 0, 23), 1313)
15: ((46, 5, 21, 45, 1, 36, 29, 4, 12, 18, 32, 17, 39, 14, 28, 38, 8, 9, 27, 22, 30, 26, 43, 34, 35, 42, 48, 6, 16, 41, 20, 11, 3, 24, 37, 2, 19, 44, 31, 49, 33, 13, 10, 40, 47, 15, 25, 7, 0, 23), 1313)
16: ((46, 5, 21, 45, 1, 36, 29, 4, 12, 18, 32, 17, 39, 14, 28, 38, 8, 9, 27, 22, 30, 26, 43, 34, 35, 42, 48, 6, 16, 41, 20, 11, 3, 24, 37, 2, 19, 44, 31, 49, 33, 13, 10, 40, 47, 15, 25, 7, 0, 23), 1313)
17: ((46, 5, 21, 45, 1, 36, 29, 4, 12, 18, 32, 17, 39, 14, 28, 38, 8, 9, 27, 22, 30, 26, 43, 34, 35, 42, 48, 6, 16, 41, 20, 11, 3, 24, 37, 2, 19, 44, 31, 49, 33, 13, 10, 40, 47, 15, 25, 7, 0, 23), 1313)
18: ((46, 5, 21, 45, 1, 36, 29, 4, 12, 18, 32, 17, 39, 14, 28, 38, 8, 9, 27, 22, 30, 26, 43, 34, 35, 42, 48, 6, 16, 41, 20, 11, 3, 24, 37, 2, 19, 44, 31, 49, 33, 13, 10, 40, 47, 15, 25, 7, 0, 23), 1313)
19: ((46, 5, 21, 45, 1, 36, 29, 4, 12, 18, 32, 17, 39, 14, 28, 38, 8, 9, 27, 22, 30, 26, 43, 34, 35, 42, 48, 6, 16, 41, 20, 11, 3, 24, 37, 2, 19, 44, 31, 49, 33, 13, 10, 40, 47, 15, 25, 7, 0, 23), 1313)
20: ((46, 5, 21, 45, 1, 36, 29, 4, 12, 18, 32, 17, 39, 14, 28, 38, 8, 9, 27, 22, 30, 26, 43, 34, 35, 42, 48, 6, 16, 41, 20, 11, 3, 24, 37, 2, 19, 44, 31, 49, 33, 13, 10, 40, 47, 15, 25, 7, 0, 23), 1313)
21: ((46, 5, 21, 45, 1, 36, 29, 4, 12, 18, 32, 17, 39, 14, 28, 38, 8, 9, 27, 22, 30, 26, 43, 34, 35, 42, 48, 6, 16, 41, 20, 11, 3, 24, 37, 2, 19, 44, 31, 49, 33, 13, 10, 40, 47, 15, 25, 7, 0, 23), 1313)
22: ((46, 5, 21, 45, 1, 36, 29, 4, 12, 18, 32, 17, 39, 14, 28, 38, 8, 9, 27, 22, 30, 26, 43, 34, 35, 42, 48, 6, 16, 41, 20, 11, 3, 24, 37, 2, 19, 44, 31, 49, 33, 13, 10, 40, 47, 15, 25, 7, 0, 23), 1313)
23: ((46, 5, 21, 45, 1, 36, 29, 4, 12, 18, 32, 17, 39, 14, 28, 38, 8, 9, 27, 22, 30, 26, 43, 34, 35, 42, 48, 6, 16, 41, 20, 11, 3, 24, 37, 2, 19, 44, 31, 49, 33, 13, 10, 40, 47, 15, 25, 7, 0, 23), 1313)
24: ((46, 5, 21, 45, 1, 36, 29, 4, 12, 18, 32, 17, 39, 14, 28, 38, 8, 9, 27, 22, 30, 26, 43, 34, 35, 42, 48, 6, 16, 41, 20, 11, 3, 24, 37, 2, 19, 44, 31, 49, 33, 13, 10, 40, 47, 15, 25, 7, 0, 23), 1313)
25: ((46, 5, 21, 45, 1, 36, 29, 4, 12, 18, 32, 17, 39, 14, 28, 38, 8, 9, 27, 22, 30, 26, 43, 34, 35, 42, 48, 6, 16, 41, 20, 11, 3, 24, 37, 2, 19, 44, 31, 49, 33, 13, 10, 40, 47, 15, 25, 7, 0, 23), 1313)
26: ((46, 5, 21, 45, 1, 36, 29, 4, 12, 18, 32, 17, 39, 14, 28, 38, 8, 9, 27, 22, 30, 26, 43, 34, 35, 42, 48, 6, 16, 41, 20, 11, 3, 24, 37, 2, 19, 44, 31, 49, 33, 13, 10, 40, 47, 15, 25, 7, 0, 23), 1313)
27: ((46, 5, 21, 45, 1, 36, 29, 4, 12, 18, 32, 17, 39, 14, 28, 38, 8, 9, 27, 22, 30, 26, 43, 34, 35, 42, 48, 6, 16, 41, 20, 11, 3, 24, 37, 2, 19, 44, 31, 49, 33, 13, 10, 40, 47, 15, 25, 7, 0, 23), 1313)
28: ((46, 5, 21, 45, 1, 36, 29, 4, 12, 18, 32, 17, 39, 14, 28, 38, 8, 9, 27, 22, 30, 26, 43, 34, 35, 42, 48, 6, 16, 41, 20, 11, 3, 24, 37, 2, 19, 44, 31, 49, 33, 13, 10, 40, 47, 15, 25, 7, 0, 23), 1313)
29: ((46, 5, 21, 45, 1, 36, 29, 4, 12, 18, 32, 17, 39, 14, 28, 38, 8, 9, 27, 22, 30, 26, 43, 34, 35, 42, 48, 6, 16, 41, 20, 11, 3, 24, 37, 2, 19, 44, 31, 49, 33, 13, 10, 40, 47, 15, 25, 7, 0, 23), 1313)
30: ((46, 5, 21, 45, 1, 36, 29, 4, 12, 18, 32, 17, 39, 14, 28, 38, 8, 9, 27, 22, 30, 26, 43, 34, 35, 42, 48, 6, 16, 41, 20, 11, 3, 24, 37, 2, 19, 44, 31, 49, 33, 13, 10, 40, 47, 15, 25, 7, 0, 23), 1313)
31: ((46, 5, 21, 45, 1, 36, 29, 4, 12, 18, 32, 17, 39, 14, 28, 38, 8, 9, 27, 22, 30, 26, 43, 34, 35, 42, 48, 6, 16, 41, 20, 11, 3, 24, 37, 2, 19, 44, 31, 49, 33, 13, 10, 40, 47, 15, 25, 7, 0, 23), 1313)
32: ((46, 5, 21, 45, 1, 36, 29, 4, 12, 18, 32, 17, 39, 14, 28, 38, 8, 9, 27, 22, 30, 26, 43, 34, 35, 42, 48, 6, 16, 41, 20, 11, 3, 24, 37, 2, 19, 44, 31, 49, 33, 13, 10, 40, 47, 15, 25, 7, 0, 23), 1313)
33: ((46, 5, 21, 45, 1, 36, 29, 4, 12, 18, 32, 17, 39, 14, 28, 38, 8, 9, 27, 22, 30, 26, 43, 34, 35, 42, 48, 6, 16, 41, 20, 11, 3, 24, 37, 2, 19, 44, 31, 49, 33, 13, 10, 40, 47, 15, 25, 7, 0, 23), 1313)
34: ((46, 5, 21, 45, 1, 36, 29, 4, 12, 18, 32, 17, 39, 14, 28, 38, 8, 9, 27, 22, 30, 26, 43, 34, 35, 42, 48, 6, 16, 41, 20, 11, 3, 24, 37, 2, 19, 44, 31, 49, 33, 13, 10, 40, 47, 15, 25, 7, 0, 23), 1313)
35: ((46, 5, 21, 45, 1, 36, 29, 4, 12, 18, 32, 17, 39, 14, 28, 38, 8, 9, 27, 22, 30, 26, 43, 34, 35, 42, 48, 6, 16, 41, 20, 11, 3, 24, 37, 2, 19, 44, 31, 49, 33, 13, 10, 40, 47, 15, 25, 7, 0, 23), 1313)
36: ((46, 5, 21, 45, 1, 36, 29, 4, 12, 18, 32, 17, 39, 14, 28, 38, 8, 9, 27, 22, 30, 26, 43, 34, 35, 42, 48, 6, 16, 41, 20, 11, 3, 24, 37, 2, 19, 44, 31, 49, 33, 13, 10, 40, 47, 15, 25, 7, 0, 23), 1313)
37: ((46, 5, 21, 45, 1, 36, 29, 4, 12, 18, 32, 17, 39, 14, 28, 38, 8, 9, 27, 22, 30, 26, 43, 34, 35, 42, 48, 6, 16, 41, 20, 11, 3, 24, 37, 2, 19, 44, 31, 49, 33, 13, 10, 40, 47, 15, 25, 7, 0, 23), 1313)
38: ((46, 5, 21, 45, 1, 36, 29, 4, 12, 18, 32, 17, 39, 14, 28, 38, 8, 9, 27, 22, 30, 26, 43, 34, 35, 42, 48, 6, 16, 41, 20, 11, 3, 24, 37, 2, 19, 44, 31, 49, 33, 13, 10, 40, 47, 15, 25, 7, 0, 23), 1313)
39: ((46, 5, 21, 45, 1, 36, 29, 4, 12, 18, 32, 17, 39, 14, 28, 38, 8, 9, 27, 22, 30, 26, 43, 34, 35, 42, 48, 6, 16, 41, 20, 11, 3, 24, 37, 2, 19, 44, 31, 49, 33, 13, 10, 40, 47, 15, 25, 7, 0, 23), 1313)
40: ((46, 5, 21, 45, 1, 36, 29, 4, 12, 18, 32, 17, 39, 14, 28, 38, 8, 9, 27, 22, 30, 26, 43, 34, 35, 42, 48, 6, 16, 41, 20, 11, 3, 24, 37, 2, 19, 44, 31, 49, 33, 13, 10, 40, 47, 15, 25, 7, 0, 23), 1313)
41: ((46, 5, 21, 45, 1, 36, 29, 4, 12, 18, 32, 17, 39, 14, 28, 38, 8, 9, 27, 22, 30, 26, 43, 34, 35, 42, 48, 6, 16, 41, 20, 11, 3, 24, 37, 2, 19, 44, 31, 49, 33, 13, 10, 40, 47, 15, 25, 7, 0, 23), 1313)
42: ((46, 5, 21, 45, 1, 36, 29, 4, 12, 18, 32, 17, 39, 14, 28, 38, 8, 9, 27, 22, 30, 26, 43, 34, 35, 42, 48, 6, 16, 41, 20, 11, 3, 24, 37, 2, 19, 44, 31, 49, 33, 13, 10, 40, 47, 15, 25, 7, 0, 23), 1313)
43: ((46, 5, 21, 45, 1, 36, 29, 4, 12, 18, 32, 17, 39, 14, 28, 38, 8, 9, 27, 22, 30, 26, 43, 34, 35, 42, 48, 6, 16, 41, 20, 11, 3, 24, 37, 2, 19, 44, 31, 49, 33, 13, 10, 40, 47, 15, 25, 7, 0, 23), 1313)
44: ((46, 5, 21, 45, 1, 36, 29, 4, 12, 18, 32, 17, 39, 14, 28, 38, 8, 9, 27, 22, 30, 26, 43, 34, 35, 42, 48, 6, 16, 41, 20, 11, 3, 24, 37, 2, 19, 44, 31, 49, 33, 13, 10, 40, 47, 15, 25, 7, 0, 23), 1313)
45: ((46, 5, 21, 45, 1, 36, 29, 4, 12, 18, 32, 17, 39, 14, 28, 38, 8, 9, 27, 22, 30, 26, 43, 34, 35, 42, 48, 6, 16, 41, 20, 11, 3, 24, 37, 2, 19, 44, 31, 49, 33, 13, 10, 40, 47, 15, 25, 7, 0, 23), 1313)
46: ((46, 5, 21, 45, 1, 36, 29, 4, 12, 18, 32, 17, 39, 14, 28, 38, 8, 9, 27, 22, 30, 26, 43, 34, 35, 42, 48, 6, 16, 41, 20, 11, 3, 24, 37, 2, 19, 44, 31, 49, 33, 13, 10, 40, 47, 15, 25, 7, 0, 23), 1313)
47: ((46, 5, 21, 45, 1, 36, 29, 4, 12, 18, 32, 17, 39, 14, 28, 38, 8, 9, 27, 22, 30, 26, 43, 34, 35, 42, 48, 6, 16, 41, 20, 11, 3, 24, 37, 2, 19, 44, 31, 49, 33, 13, 10, 40, 47, 15, 25, 7, 0, 23), 1313)
48: ((46, 5, 21, 45, 1, 36, 29, 4, 12, 18, 32, 17, 39, 14, 28, 38, 8, 9, 27, 22, 30, 26, 43, 34, 35, 42, 48, 6, 16, 41, 20, 11, 3, 24, 37, 2, 19, 44, 31, 49, 33, 13, 10, 40, 47, 15, 25, 7, 0, 23), 1313)
49: ((46, 5, 21, 45, 1, 36, 29, 4, 12, 18, 32, 17, 39, 14, 28, 38, 8, 9, 27, 22, 30, 26, 43, 34, 35, 42, 48, 6, 16, 41, 20, 11, 3, 24, 37, 2, 19, 44, 31, 49, 33, 13, 10, 40, 47, 15, 25, 7, 0, 23), 1313)
50: ((46, 5, 21, 45, 1, 36, 29, 4, 12, 18, 32, 17, 39, 14, 28, 38, 8, 9, 27, 22, 30, 26, 43, 34, 35, 42, 48, 6, 16, 41, 20, 11, 3, 24, 37, 2, 19, 44, 31, 49, 33, 13, 10, 40, 47, 15, 25, 7, 0, 23), 1313)
51: ((46, 5, 21, 45, 1, 36, 29, 4, 12, 18, 32, 17, 39, 14, 28, 38, 8, 9, 27, 22, 30, 26, 43, 34, 35, 42, 48, 6, 16, 41, 20, 11, 3, 24, 37, 2, 19, 44, 31, 49, 33, 13, 10, 40, 47, 15, 25, 7, 0, 23), 1313)
52: ((46, 5, 21, 45, 1, 36, 29, 4, 12, 18, 32, 17, 39, 14, 28, 38, 8, 9, 27, 22, 30, 26, 43, 34, 35, 42, 48, 6, 16, 41, 20, 11, 3, 24, 37, 2, 19, 44, 31, 49, 33, 13, 10, 40, 47, 15, 25, 7, 0, 23), 1313)
53: ((46, 5, 21, 45, 1, 36, 29, 4, 12, 18, 32, 17, 39, 14, 28, 38, 8, 9, 27, 22, 30, 26, 43, 34, 35, 42, 48, 6, 16, 41, 20, 11, 3, 24, 37, 2, 19, 44, 31, 49, 33, 13, 10, 40, 47, 15, 25, 7, 0, 23), 1313)
54: ((46, 5, 21, 45, 1, 36, 29, 4, 12, 18, 32, 17, 39, 14, 28, 38, 8, 9, 27, 22, 30, 26, 43, 34, 35, 42, 48, 6, 16, 41, 20, 11, 3, 24, 37, 2, 19, 44, 31, 49, 33, 13, 10, 40, 47, 15, 25, 7, 0, 23), 1313)
55: ((46, 5, 21, 45, 1, 36, 29, 4, 12, 18, 32, 17, 39, 14, 28, 38, 8, 9, 27, 22, 30, 26, 43, 34, 35, 42, 48, 6, 16, 41, 20, 11, 3, 24, 37, 2, 19, 44, 31, 49, 33, 13, 10, 40, 47, 15, 25, 7, 0, 23), 1313)
56: ((46, 5, 21, 45, 1, 36, 29, 4, 12, 18, 32, 17, 39, 14, 28, 38, 8, 9, 27, 22, 30, 26, 43, 34, 35, 42, 48, 6, 16, 41, 20, 11, 3, 24, 37, 2, 19, 44, 31, 49, 33, 13, 10, 40, 47, 15, 25, 7, 0, 23), 1313)
57: ((46, 5, 21, 45, 1, 36, 29, 4, 12, 18, 32, 17, 39, 14, 28, 38, 8, 9, 27, 22, 30, 26, 43, 34, 35, 42, 48, 6, 16, 41, 20, 11, 3, 24, 37, 2, 19, 44, 31, 49, 33, 13, 10, 40, 47, 15, 25, 7, 0, 23), 1313)
58: ((46, 5, 21, 45, 1, 36, 29, 4, 12, 18, 32, 17, 39, 14, 28, 38, 8, 9, 27, 22, 30, 26, 43, 34, 35, 42, 48, 6, 16, 41, 20, 11, 3, 24, 37, 2, 19, 44, 31, 49, 33, 13, 10, 40, 47, 15, 25, 7, 0, 23), 1313)
59: ((46, 5, 21, 45, 1, 36, 29, 4, 12, 18, 32, 17, 39, 14, 28, 38, 8, 9, 27, 22, 30, 26, 43, 34, 35, 42, 48, 6, 16, 41, 20, 11, 3, 24, 37, 2, 19, 44, 31, 49, 33, 13, 10, 40, 47, 15, 25, 7, 0, 23), 1313)
60: ((46, 5, 21, 45, 1, 36, 29, 4, 12, 18, 32, 17, 39, 14, 28, 38, 8, 9, 27, 22, 30, 26, 43, 34, 35, 42, 48, 6, 16, 41, 20, 11, 3, 24, 37, 2, 19, 44, 31, 49, 33, 13, 10, 40, 47, 15, 25, 7, 0, 23), 1313)
61: ((46, 5, 21, 45, 1, 36, 29, 4, 12, 18, 32, 17, 39, 14, 28, 38, 8, 9, 27, 22, 30, 26, 43, 34, 35, 42, 48, 6, 16, 41, 20, 11, 3, 24, 37, 2, 19, 44, 31, 49, 33, 13, 10, 40, 47, 15, 25, 7, 0, 23), 1313)
62: ((46, 5, 21, 45, 1, 36, 29, 4, 12, 18, 32, 17, 39, 14, 28, 38, 8, 9, 27, 22, 30, 26, 43, 34, 35, 42, 48, 6, 16, 41, 20, 11, 3, 24, 37, 2, 19, 44, 31, 49, 33, 13, 10, 40, 47, 15, 25, 7, 0, 23), 1313)
63: ((46, 5, 21, 45, 1, 36, 29, 4, 12, 18, 32, 17, 39, 14, 28, 38, 8, 9, 27, 22, 30, 26, 43, 34, 35, 42, 48, 6, 16, 41, 20, 11, 3, 24, 37, 2, 19, 44, 31, 49, 33, 13, 10, 40, 47, 15, 25, 7, 0, 23), 1313)
64: ((46, 5, 21, 45, 1, 36, 29, 4, 12, 18, 32, 17, 39, 14, 28, 38, 8, 9, 27, 22, 30, 26, 43, 34, 35, 42, 48, 6, 16, 41, 20, 11, 3, 24, 37, 2, 19, 44, 31, 49, 33, 13, 10, 40, 47, 15, 25, 7, 0, 23), 1313)
65: ((46, 5, 21, 45, 1, 36, 29, 4, 12, 18, 32, 17, 39, 14, 28, 38, 8, 9, 27, 22, 30, 26, 43, 34, 35, 42, 48, 6, 16, 41, 20, 11, 3, 24, 37, 2, 19, 44, 31, 49, 33, 13, 10, 40, 47, 15, 25, 7, 0, 23), 1313)
66: ((46, 5, 21, 45, 1, 36, 29, 4, 12, 18, 32, 17, 39, 14, 28, 38, 8, 9, 27, 22, 30, 26, 43, 34, 35, 42, 48, 6, 16, 41, 20, 11, 3, 24, 37, 2, 19, 44, 31, 49, 33, 13, 10, 40, 47, 15, 25, 7, 0, 23), 1313)
67: ((46, 5, 21, 45, 1, 36, 29, 4, 12, 18, 32, 17, 39, 14, 28, 38, 8, 9, 27, 22, 30, 26, 43, 34, 35, 42, 48, 6, 16, 41, 20, 11, 3, 24, 37, 2, 19, 44, 31, 49, 33, 13, 10, 40, 47, 15, 25, 7, 0, 23), 1313)
68: ((46, 5, 21, 45, 1, 36, 29, 4, 12, 18, 32, 17, 39, 14, 28, 38, 8, 9, 27, 22, 30, 26, 43, 34, 35, 42, 48, 6, 16, 41, 20, 11, 3, 24, 37, 2, 19, 44, 31, 49, 33, 13, 10, 40, 47, 15, 25, 7, 0, 23), 1313)
69: ((46, 5, 21, 45, 1, 36, 29, 4, 12, 18, 32, 17, 39, 14, 28, 38, 8, 9, 27, 22, 30, 26, 43, 34, 35, 42, 48, 6, 16, 41, 20, 11, 3, 24, 37, 2, 19, 44, 31, 49, 33, 13, 10, 40, 47, 15, 25, 7, 0, 23), 1313)
70: ((46, 5, 21, 45, 1, 36, 29, 4, 12, 18, 32, 17, 39, 14, 28, 38, 8, 9, 27, 22, 30, 26, 43, 34, 35, 42, 48, 6, 16, 41, 20, 11, 3, 24, 37, 2, 19, 44, 31, 49, 33, 13, 10, 40, 47, 15, 25, 7, 0, 23), 1313)
71: ((46, 5, 21, 45, 1, 36, 29, 4, 12, 18, 32, 17, 39, 14, 28, 38, 8, 9, 27, 22, 30, 26, 43, 34, 35, 42, 48, 6, 16, 41, 20, 11, 3, 24, 37, 2, 19, 44, 31, 49, 33, 13, 10, 40, 47, 15, 25, 7, 0, 23), 1313)
72: ((46, 5, 21, 45, 1, 36, 29, 4, 12, 18, 32, 17, 39, 14, 28, 38, 8, 9, 27, 22, 30, 26, 43, 34, 35, 42, 48, 6, 16, 41, 20, 11, 3, 24, 37, 2, 19, 44, 31, 49, 33, 13, 10, 40, 47, 15, 25, 7, 0, 23), 1313)
73: ((46, 5, 21, 45, 1, 36, 29, 4, 12, 18, 32, 17, 39, 14, 28, 38, 8, 9, 27, 22, 30, 26, 43, 34, 35, 42, 48, 6, 16, 41, 20, 11, 3, 24, 37, 2, 19, 44, 31, 49, 33, 13, 10, 40, 47, 15, 25, 7, 0, 23), 1313)
74: ((46, 5, 21, 45, 1, 36, 29, 4, 12, 18, 32, 17, 39, 14, 28, 38, 8, 9, 27, 22, 30, 26, 43, 34, 35, 42, 48, 6, 16, 41, 20, 11, 3, 24, 37, 2, 19, 44, 31, 49, 33, 13, 10, 40, 47, 15, 25, 7, 0, 23), 1313)
75: ((46, 5, 21, 45, 1, 36, 29, 4, 12, 18, 32, 17, 39, 14, 28, 38, 8, 9, 27, 22, 30, 26, 43, 34, 35, 42, 48, 6, 16, 41, 20, 11, 3, 24, 37, 2, 19, 44, 31, 49, 33, 13, 10, 40, 47, 15, 25, 7, 0, 23), 1313)
76: ((46, 5, 21, 45, 1, 36, 29, 4, 12, 18, 32, 17, 39, 14, 28, 38, 8, 9, 27, 22, 30, 26, 43, 34, 35, 42, 48, 6, 16, 41, 20, 11, 3, 24, 37, 2, 19, 44, 31, 49, 33, 13, 10, 40, 47, 15, 25, 7, 0, 23), 1313)
77: ((46, 5, 21, 45, 1, 36, 29, 4, 12, 18, 32, 17, 39, 14, 28, 38, 8, 9, 27, 22, 30, 26, 43, 34, 35, 42, 48, 6, 16, 41, 20, 11, 3, 24, 37, 2, 19, 44, 31, 49, 33, 13, 10, 40, 47, 15, 25, 7, 0, 23), 1313)
78: ((46, 5, 21, 45, 1, 36, 29, 4, 12, 18, 32, 17, 39, 14, 28, 38, 8, 9, 27, 22, 30, 26, 43, 34, 35, 42, 48, 6, 16, 41, 20, 11, 3, 24, 37, 2, 19, 44, 31, 49, 33, 13, 10, 40, 47, 15, 25, 7, 0, 23), 1313)
79: ((46, 5, 21, 45, 1, 36, 29, 4, 12, 18, 32, 17, 39, 14, 28, 38, 8, 9, 27, 22, 30, 26, 43, 34, 35, 42, 48, 6, 16, 41, 20, 11, 3, 24, 37, 2, 19, 44, 31, 49, 33, 13, 10, 40, 47, 15, 25, 7, 0, 23), 1313)
80: ((46, 5, 21, 45, 1, 36, 29, 4, 12, 18, 32, 17, 39, 14, 28, 38, 8, 9, 27, 22, 30, 26, 43, 34, 35, 42, 48, 6, 16, 41, 20, 11, 3, 24, 37, 2, 19, 44, 31, 49, 33, 13, 10, 40, 47, 15, 25, 7, 0, 23), 1313)
81: ((46, 5, 21, 45, 1, 36, 29, 4, 12, 18, 32, 17, 39, 14, 28, 38, 8, 9, 27, 22, 30, 26, 43, 34, 35, 42, 48, 6, 16, 41, 20, 11, 3, 24, 37, 2, 19, 44, 31, 49, 33, 13, 10, 40, 47, 15, 25, 7, 0, 23), 1313)
82: ((46, 5, 21, 45, 1, 36, 29, 4, 12, 18, 32, 17, 39, 14, 28, 38, 8, 9, 27, 22, 30, 26, 43, 34, 35, 42, 48, 6, 16, 41, 20, 11, 3, 24, 37, 2, 19, 44, 31, 49, 33, 13, 10, 40, 47, 15, 25, 7, 0, 23), 1313)
83: ((46, 5, 21, 45, 1, 36, 29, 4, 12, 18, 32, 17, 39, 14, 28, 38, 8, 9, 27, 22, 30, 26, 43, 34, 35, 42, 48, 6, 16, 41, 20, 11, 3, 24, 37, 2, 19, 44, 31, 49, 33, 13, 10, 40, 47, 15, 25, 7, 0, 23), 1313)
84: ((46, 5, 21, 45, 1, 36, 29, 4, 12, 18, 32, 17, 39, 14, 28, 38, 8, 9, 27, 22, 30, 26, 43, 34, 35, 42, 48, 6, 16, 41, 20, 11, 3, 24, 37, 2, 19, 44, 31, 49, 33, 13, 10, 40, 47, 15, 25, 7, 0, 23), 1313)
85: ((46, 5, 21, 45, 1, 36, 29, 4, 12, 18, 32, 17, 39, 14, 28, 38, 8, 9, 27, 22, 30, 26, 43, 34, 35, 42, 48, 6, 16, 41, 20, 11, 3, 24, 37, 2, 19, 44, 31, 49, 33, 13, 10, 40, 47, 15, 25, 7, 0, 23), 1313)
86: ((46, 5, 21, 45, 1, 36, 29, 4, 12, 18, 32, 17, 39, 14, 28, 38, 8, 9, 27, 22, 30, 26, 43, 34, 35, 42, 48, 6, 16, 41, 20, 11, 3, 24, 37, 2, 19, 44, 31, 49, 33, 13, 10, 40, 47, 15, 25, 7, 0, 23), 1313)
87: ((46, 5, 21, 45, 1, 36, 29, 4, 12, 18, 32, 17, 39, 14, 28, 38, 8, 9, 27, 22, 30, 26, 43, 34, 35, 42, 48, 6, 16, 41, 20, 11, 3, 24, 37, 2, 19, 44, 31, 49, 33, 13, 10, 40, 47, 15, 25, 7, 0, 23), 1313)
88: ((46, 5, 21, 45, 1, 36, 29, 4, 12, 18, 32, 17, 39, 14, 28, 38, 8, 9, 27, 22, 30, 26, 43, 34, 35, 42, 48, 6, 16, 41, 20, 11, 3, 24, 37, 2, 19, 44, 31, 49, 33, 13, 10, 40, 47, 15, 25, 7, 0, 23), 1313)
89: ((46, 5, 21, 45, 1, 36, 29, 4, 12, 18, 32, 17, 39, 14, 28, 38, 8, 9, 27, 22, 30, 26, 43, 34, 35, 42, 48, 6, 16, 41, 20, 11, 3, 24, 37, 2, 19, 44, 31, 49, 33, 13, 10, 40, 47, 15, 25, 7, 0, 23), 1313)
90: ((46, 5, 21, 45, 1, 36, 29, 4, 12, 18, 32, 17, 39, 14, 28, 38, 8, 9, 27, 22, 30, 26, 43, 34, 35, 42, 48, 6, 16, 41, 20, 11, 3, 24, 37, 2, 19, 44, 31, 49, 33, 13, 10, 40, 47, 15, 25, 7, 0, 23), 1313)
91: ((46, 5, 21, 45, 1, 36, 29, 4, 12, 18, 32, 17, 39, 14, 28, 38, 8, 9, 27, 22, 30, 26, 43, 34, 35, 42, 48, 6, 16, 41, 20, 11, 3, 24, 37, 2, 19, 44, 31, 49, 33, 13, 10, 40, 47, 15, 25, 7, 0, 23), 1313)
92: ((46, 5, 21, 45, 1, 36, 29, 4, 12, 18, 32, 17, 39, 14, 28, 38, 8, 9, 27, 22, 30, 26, 43, 34, 35, 42, 48, 6, 16, 41, 20, 11, 3, 24, 37, 2, 19, 44, 31, 49, 33, 13, 10, 40, 47, 15, 25, 7, 0, 23), 1313)
93: ((46, 5, 21, 45, 1, 36, 29, 4, 12, 18, 32, 17, 39, 14, 28, 38, 8, 9, 27, 22, 30, 26, 43, 34, 35, 42, 48, 6, 16, 41, 20, 11, 3, 24, 37, 2, 19, 44, 31, 49, 33, 13, 10, 40, 47, 15, 25, 7, 0, 23), 1313)
94: ((46, 5, 21, 45, 1, 36, 29, 4, 12, 18, 32, 17, 39, 14, 28, 38, 8, 9, 27, 22, 30, 26, 43, 34, 35, 42, 48, 6, 16, 41, 20, 11, 3, 24, 37, 2, 19, 44, 31, 49, 33, 13, 10, 40, 47, 15, 25, 7, 0, 23), 1313)
95: ((46, 5, 21, 45, 1, 36, 29, 4, 12, 18, 32, 17, 39, 14, 28, 38, 8, 9, 27, 22, 30, 26, 43, 34, 35, 42, 48, 6, 16, 41, 20, 11, 3, 24, 37, 2, 19, 44, 31, 49, 33, 13, 10, 40, 47, 15, 25, 7, 0, 23), 1313)
Best: ((46, 5, 21, 45, 1, 36, 29, 4, 12, 18, 32, 17, 39, 14, 28, 38, 8, 9, 27, 22, 30, 26, 43, 34, 35, 42, 48, 6, 16, 41, 20, 11, 3, 24, 37, 2, 19, 44, 31, 49, 33, 13, 10, 40, 47, 15, 25, 7, 0, 23), 1313)
Runtime: 21.7233306 s